80
30
0 31 33 34 39 41 42 43 47 48 49 51 53 54 55 58 60 62 63 64 65 66 67 71 72 74 75 76 78 79
1 30 31 32 33 34 37 40 41 43 45 46 47 49 51 52 53 54 55 56 57 58 59 60 62 64 65 66 67 68 69 70 74 75 78
2 30 31 34 37 39 40 41 42 46 47 48 51 52 53 54 55 60 62 63 64 65 66 67 68 70 71 73 74 75 78 79
3 30 31 33 34 37 39 41 46 47 48 49 50 52 53 54 55 57 58 62 63 65 68 70 73 74 75 76 78 79
4 30 31 37 39 40 41 42 43 46 47 48 49 50 51 52 55 57 58 59 62 67 68 71 74 75 76 78 79
5 30 31 33 34 37 39 41 42 45 46 47 48 51 52 53 54 55 57 58 60 61 62 63 64 65 67 69 70 75 76 78 79
6 30 33 34 37 39 41 42 43 46 47 48 49 51 53 55 57 58 62 64 65 67 70 71 74 75 77 78 79
7 30 37 38 39 40 41 42 44 45 47 48 49 50 51 53 54 55 56 58 59 60 62 64 65 67 68 70 75 76 78
8 31 37 39 42 46 48 49 51 52 54 55 60 62 63 64 65 67 72 76 78
9 30 31 32 33 37 39 40 41 42 44 45 47 48 51 52 54 57 58 60 62 64 65 67 70 71 73 74 75 76 78 79
10 30 33 39 40 42 43 45 47 48 51 52 53 54 55 57 59 60 62 63 65 68 69 70 74 75 76 78 79
11 30 31 34 35 37 40 41 46 49 50 53 55 60 63 64 65 67 68 71 75 76 78 79
12 31 33 37 39 43 46 48 49 53 54 55 56 57 60 62 63 64 65 67 68 70 72 74 75 76 79
13 30 32 33 37 40 42 45 46 48 50 51 52 54 56 57 60 63 65 67 70 76 78 79
14 30 31 33 37 39 40 41 42 43 45 46 47 52 54 55 58 60 62 64 65 66 67 70 71 74 76 78
15 33 34 38 40 41 43 46 48 51 52 53 55 57 60 62 63 64 65 69 70 71 73 74 75 79
16 34 37 38 41 42 43 46 47 49 50 52 53 54 55 56 57 63 64 67 68 70 74 76
17 30 31 41 42 43 46 49 51 54 58 63 64 65 68 70 76
18 30 31 37 39 41 43 44 46 49 51 53 55 57 58 59 62 63 72 76 78
19 32 33 34 41 47 48 49 52 55 64 71 78
20 32 33 40 45 52 53 60 62 64 67 68 71 72 73 75
21 37 39 41 43 47 51 54 56 58 64 66 67 68 73 79
22 30 34 37 38 46 53 59 63 68 70 71 72 75
23 37 41 46 49 52 63 69 74 78
24 44 49 52 71 76 77
25 32 49 54 55 58 64 65 66 67 70 71 75
26 40 69 73
27 31 37 42 45 46 70
28 33 51
29 34 36 59 64
